MARKOV
797
 2 2 2 2 2 2 2 2 2 2 2 2 2 2 2 2 2 2 2 2 2 2 2 2 2 2 2 2 2 2 2 2 2 2 2 2 2 2 2 2 2 2 2 2 2 2 2 2 2 2 2 2 2 2 2 2 2 2 2 2 2 2 2 2 2 2 2 2 2 2 2 2 2 2 2 2 2 2 2 2 2 2 2 2 2 2 2 2 2 2 2 2 2 2 2 2 2 2 2 2 2 2 2 2 2 2 2 2 2 2 2 2 2 2 2 2 2 2 2 2 2 2 2 2 2 2 2 2 2 2 2 2 2 2 2 2 2 2 2 2 2 2 2 2 2 2 2 2 2 2 2 2 2 2 2 2 2 2 2 2 2 2 2 2 2 2 2 2 2 2 2 2 2 2 2 2 2 2 2 2 2 2 2 2 2 2 2 2 2 2 2 2 2 2 2 2 2 2 2 2 2 2 2 2 2 2 2 2 2 2 2 2 2 2 2 2 2 2 2 2 2 2 2 2 2 2 2 2 2 2 2 2 2 2 2 2 2 2 2 2 2 2 2 2 2 2 2 2 2 2 2 2 2 2 2 2 2 2 2 2 2 2 2 2 2 2 2 2 2 2 2 2 2 2 2 2 2 2 2 2 2 2 2 2 2 2 2 2 2 2 2 2 2 2 2 2 2 2 2 2 2 2 2 2 2 2 2 2 2 2 2 2 2 2 2 2 2 2 2 2 2 2 2 2 2 2 2 2 2 2 2 2 2 2 2 2 2 2 2 2 2 2 2 2 2 2 2 2 2 2 2 2 2 2 2 2 2 2 2 2 2 2 2 2 2 2 2 2 2 2 2 2 2 2 2 2 2 2 2 2 2 2 2 2 2 2 2 2 2 2 2 2 2 2 2 2 2 2 2 2 2 2 2 2 2 2 2 2 2 2 2 2 2 2 2 2 2 2 2 2 2 2 2 2 2 2 2 2 2 2 2 2 2 2 2 2 2 2 2 2 2 2 2 2 2 2 2 2 2 2 2 2 2 2 2 2 2 2 2 2 2 2 2 2 2 2 2 2 2 2 2 2 2 2 2 2 2 2 2 2 2 2 2 2 2 2 2 2 2 2 2 2 2 2 2 2 2 2 2 2 2 2 2 2 2 2 2 2 2 2 2 2 2 2 2 2 2 2 2 2 2 2 2 2 2 2 2 2 2 2 2 2 2 2 2 2 2 2 2 2 2 2 2 2 2 2 2 2 2 2 2 2 2 2 2 2 2 2 2 2 2 2 2 2 2 2 2 2 2 2 2 2 2 2 2 2 2 2 2 2 2 2 2 2 2 2 2 2 2 2 2 2 2 2 2 2 2 2 2 2 2 2 2 2 2 2 2 2 2 2 2 2 2 2 2 2 2 2 2 2 2 2 2 2 2 2 2 2 2 2 2 2 2 2 2 2 2 2 2 2 2 2 2 2 2 2 2 2 2 2 2 2 2 2 2 2 2 2 2 2 2 2 2 2 2 2 2 2 2 2 2 2 2 2 2 2 2 2 2 2 2 2 2 2 2 2 2 2 2 2 2 2 2 2 2 2 2 2 2 2 2 2 2 2 2 2 2 2 2 2 2 2 2 2 2 2 2 2 2 2 2 2 2 2 2 2 2 2 2 2 2 2 2 2 2 2 2 2 2 2 2 2 2 2 2 2 2 2 2 2 2 2 2 2 2 2 2 2 2 2 2 2 2 2 2 2 2 2 2 2 2 2 2 2 2 2 2 2 2 2 2 2 2 2 2 2 2 2 2 2 2 2 2 2 2 2 2
812
3	126 285 796 
3	77 795 796 
3	22 794 795 
3	40 793 794 
3	124 792 793 
3	2 791 792 
3	84 790 791 
3	227 789 790 
3	253 788 789 
3	20 787 788 
3	98 786 787 
3	51 785 786 
3	4 784 785 
3	234 783 784 
3	125 782 783 
3	89 781 782 
3	219 780 781 
3	16 779 780 
3	88 778 779 
3	45 777 778 
3	134 776 777 
3	200 775 776 
3	266 774 775 
3	248 773 774 
3	207 772 773 
3	264 771 772 
3	242 770 771 
3	178 769 770 
3	147 768 769 
1	768 
3	92 193 767 
3	275 766 767 
3	237 765 766 
1	765 
3	57 106 764 
3	229 763 764 
3	145 762 763 
3	104 761 762 
3	107 760 761 
3	24 759 760 
3	205 758 759 
3	121 757 758 
3	60 756 757 
3	226 755 756 
3	52 754 755 
3	142 753 754 
3	158 752 753 
3	233 751 752 
3	170 750 751 
3	34 749 750 
3	47 748 749 
3	83 747 748 
3	115 746 747 
3	102 745 746 
3	53 744 745 
3	105 743 744 
3	112 742 743 
3	14 741 742 
3	276 740 741 
3	43 739 740 
3	214 738 739 
3	283 737 738 
3	230 736 737 
3	76 735 736 
3	75 734 735 
3	13 733 734 
3	165 732 733 
3	23 731 732 
3	250 730 731 
3	58 729 730 
3	254 728 729 
3	63 727 728 
3	85 726 727 
3	119 725 726 
3	91 724 725 
3	2 723 724 
3	204 722 723 
3	265 721 722 
3	179 720 721 
3	39 719 720 
3	256 718 719 
3	30 717 718 
3	42 716 717 
3	65 715 716 
3	12 714 715 
3	189 713 714 
3	208 712 713 
3	176 711 712 
3	5 710 711 
3	96 709 710 
3	1 708 709 
3	146 707 708 
3	64 706 707 
3	94 705 706 
3	191 704 705 
3	49 703 704 
3	206 702 703 
3	36 701 702 
3	273 700 701 
3	173 699 700 
3	103 698 699 
3	187 697 698 
3	278 696 697 
3	228 695 696 
1	695 
3	137 215 694 
3	106 693 694 
3	0 692 693 
3	223 691 692 
3	185 690 691 
3	262 689 690 
3	11 688 689 
3	136 687 688 
3	192 686 687 
3	46 685 686 
3	284 684 685 
3	281 683 684 
3	267 682 683 
3	270 681 682 
3	90 680 681 
3	214 679 680 
3	177 678 679 
3	75 677 678 
3	13 676 677 
3	245 675 676 
3	212 674 675 
3	260 673 674 
3	18 672 673 
3	239 671 672 
3	199 670 671 
3	268 669 670 
3	153 668 669 
3	78 667 668 
3	169 666 667 
3	274 665 666 
3	241 664 665 
3	117 663 664 
3	235 662 663 
3	95 661 662 
3	12 660 661 
3	159 659 660 
3	188 658 659 
3	152 657 658 
3	164 656 657 
3	251 655 656 
3	255 654 655 
3	103 653 654 
3	151 652 653 
3	222 651 652 
3	198 650 651 
3	161 649 650 
3	104 648 649 
3	211 647 648 
3	107 646 647 
3	24 645 646 
3	29 644 645 
3	97 643 644 
3	108 642 643 
3	261 641 642 
3	196 640 641 
3	168 639 640 
3	129 638 639 
3	183 637 638 
3	62 636 637 
3	276 635 636 
3	8 634 635 
3	246 633 634 
3	175 632 633 
3	194 631 632 
3	154 630 631 
3	165 629 630 
3	195 628 629 
3	280 627 628 
3	93 626 627 
3	149 625 626 
3	66 624 625 
3	224 623 624 
3	217 622 623 
3	15 621 622 
3	9 620 621 
3	55 619 620 
3	128 618 619 
3	244 617 618 
3	122 616 617 
3	173 615 616 
3	172 614 615 
3	182 613 614 
3	61 612 613 
3	156 611 612 
1	611 
3	70 81 610 
3	7 609 610 
3	123 608 609 
3	270 607 608 
3	19 606 607 
3	87 605 606 
3	180 604 605 
3	93 603 604 
3	252 602 603 
3	135 601 602 
3	275 600 601 
3	122 599 600 
3	97 598 599 
3	6 597 598 
3	50 596 597 
3	59 595 596 
3	195 594 595 
3	279 593 594 
1	593 
3	106 137 592 
3	223 591 592 
3	0 590 591 
3	185 589 590 
3	161 588 589 
3	211 587 588 
3	192 586 587 
3	121 585 586 
3	108 584 585 
3	97 583 584 
3	50 582 583 
3	281 581 582 
3	261 580 581 
3	197 579 580 
3	31 578 579 
3	142 577 578 
3	249 576 577 
3	80 575 576 
3	267 574 575 
3	196 573 574 
3	168 572 573 
3	270 571 572 
3	72 570 571 
3	90 569 570 
3	180 568 569 
3	183 567 568 
3	62 566 567 
3	175 565 566 
3	245 564 565 
3	195 563 564 
3	260 562 563 
3	18 561 562 
3	239 560 561 
3	199 559 560 
3	123 558 559 
3	259 557 558 
3	153 556 557 
3	149 555 556 
3	241 554 555 
3	95 553 554 
3	224 552 553 
3	217 551 552 
3	15 550 551 
3	9 549 550 
3	7 548 549 
3	55 547 548 
3	87 546 547 
3	247 545 546 
3	155 544 545 
3	164 543 544 
3	275 542 543 
3	128 541 542 
3	251 540 541 
3	122 539 540 
3	172 538 539 
3	182 537 538 
3	228 536 537 
3	156 535 536 
1	535 
3	6 92 534 
3	275 533 534 
3	31 532 533 
1	532 
3	106 282 531 
3	104 530 531 
3	73 529 530 
3	107 528 529 
3	121 527 528 
3	160 526 527 
3	30 525 526 
3	86 524 525 
3	189 523 524 
3	142 522 523 
3	47 521 522 
3	38 520 521 
3	115 519 520 
3	232 518 519 
3	105 517 518 
3	113 516 517 
3	276 515 516 
3	148 514 515 
3	214 513 514 
3	230 512 513 
3	273 511 512 
3	103 510 511 
3	100 509 510 
3	166 508 509 
3	254 507 508 
1	507 
3	210 270 506 
3	67 505 506 
1	505 
3	70 81 504 
3	7 503 504 
3	123 502 503 
3	270 501 502 
3	19 500 501 
3	87 499 500 
3	93 498 499 
3	180 497 498 
3	252 496 497 
3	135 495 496 
3	275 494 495 
3	122 493 494 
3	97 492 493 
3	6 491 492 
3	50 490 491 
3	59 489 490 
3	195 488 489 
3	279 487 488 
3	249 486 487 
1	486 
3	35 221 485 
3	114 484 485 
3	132 483 484 
3	201 482 483 
3	118 481 482 
3	193 480 481 
3	225 479 480 
3	169 478 479 
3	10 477 478 
3	111 476 477 
3	272 475 476 
3	116 474 475 
3	144 473 474 
3	213 472 473 
3	86 471 472 
3	37 470 471 
3	146 469 470 
3	243 468 469 
3	130 467 468 
3	45 466 467 
3	163 465 466 
3	25 464 465 
3	167 463 464 
3	44 462 463 
3	236 461 462 
3	109 460 461 
3	194 459 460 
3	110 458 459 
3	162 457 458 
3	184 456 457 
1	456 
3	27 220 455 
3	101 454 455 
3	203 453 454 
1	453 
3	80 247 452 
3	211 451 452 
3	281 450 451 
1	450 
3	215 223 449 
3	68 448 449 
3	253 447 448 
3	121 446 447 
3	46 445 446 
3	51 444 445 
3	281 443 444 
3	88 442 443 
3	267 441 442 
3	186 440 441 
3	157 439 440 
3	112 438 439 
3	141 437 438 
3	131 436 437 
3	28 435 436 
3	216 434 435 
3	245 433 434 
3	260 432 433 
3	239 431 432 
3	199 430 431 
3	153 429 430 
3	259 428 429 
3	78 427 428 
3	256 426 427 
3	241 425 426 
3	92 424 425 
3	117 423 424 
3	96 422 423 
3	247 421 422 
3	87 420 421 
3	56 419 420 
3	17 418 419 
3	103 417 418 
3	151 416 417 
3	242 415 416 
3	104 414 415 
3	252 413 414 
3	202 412 413 
3	41 411 412 
3	71 410 411 
3	211 409 410 
3	107 408 409 
3	277 407 408 
3	84 406 407 
3	74 405 406 
3	108 404 405 
3	52 403 404 
3	261 402 403 
3	142 401 402 
3	158 400 401 
3	257 399 400 
3	80 398 399 
3	81 397 398 
3	168 396 397 
3	72 395 396 
3	14 394 395 
3	143 393 394 
3	62 392 393 
3	269 391 392 
3	238 390 391 
3	230 389 390 
3	194 388 389 
3	23 387 388 
3	59 386 387 
3	6 385 386 
3	195 384 385 
3	58 383 384 
3	150 382 383 
3	70 381 382 
3	201 380 381 
3	21 379 380 
3	93 378 379 
3	127 377 378 
3	258 376 377 
3	217 375 376 
3	86 374 375 
3	9 373 374 
3	174 372 373 
3	64 371 372 
3	171 370 371 
3	128 369 370 
3	122 368 369 
3	263 367 368 
3	99 366 367 
3	228 365 366 
3	190 364 365 
3	137 363 364 
3	140 362 363 
3	106 361 362 
3	57 360 361 
3	0 359 360 
3	185 358 359 
3	262 357 358 
3	40 356 357 
3	192 355 356 
3	50 354 355 
3	226 353 354 
3	271 352 353 
3	31 351 352 
3	249 350 351 
3	270 349 350 
3	180 348 349 
3	90 347 348 
3	214 346 347 
3	133 345 346 
3	250 344 345 
3	209 343 344 
3	254 342 343 
3	18 341 342 
3	69 340 341 
3	124 339 340 
3	274 338 339 
3	181 337 338 
3	33 336 337 
3	138 335 336 
3	235 334 335 
3	95 333 334 
3	159 332 333 
3	208 331 332 
3	188 330 331 
3	155 329 330 
3	152 328 329 
3	164 327 328 
3	135 326 327 
3	79 325 326 
3	275 324 325 
3	207 323 324 
3	251 322 323 
3	222 321 322 
3	120 320 321 
3	240 319 320 
3	139 318 319 
3	161 317 318 
3	282 316 317 
3	218 315 316 
3	3 314 315 
3	24 313 314 
3	32 312 313 
3	29 311 312 
3	97 310 311 
3	197 309 310 
3	196 308 309 
3	19 307 308 
3	183 306 307 
3	276 305 306 
3	231 304 305 
3	175 303 304 
3	154 302 303 
3	123 301 302 
3	280 300 301 
3	149 299 300 
3	82 298 299 
3	54 297 298 
3	48 296 297 
3	224 295 296 
3	16 294 295 
3	15 293 294 
3	7 292 293 
3	55 291 292 
3	26 290 291 
3	172 289 290 
3	182 288 289 
3	61 287 288 
3	156 286 287 
1	286 
1	215 
1	77 
1	223 
1	145 
1	118 
1	11 
1	68 
1	225 
1	205 
1	253 
1	46 
1	121 
1	51 
1	60 
1	281 
1	213 
1	233 
1	170 
1	88 
1	267 
1	157 
1	186 
1	243 
1	163 
1	105 
1	112 
1	131 
1	141 
1	28 
1	109 
1	216 
1	245 
1	212 
1	260 
1	239 
1	199 
1	259 
1	153 
1	193 
1	78 
1	39 
1	256 
1	92 
1	241 
1	98 
1	117 
1	12 
1	96 
1	146 
1	247 
1	87 
1	191 
1	56 
1	167 
1	17 
1	248 
1	273 
1	255 
1	103 
1	151 
1	278 
1	242 
1	198 
1	279 
1	221 
1	22 
1	104 
1	252 
1	41 
1	202 
1	71 
1	277 
1	107 
1	211 
1	272 
1	84 
1	74 
1	108 
1	52 
1	234 
1	89 
1	210 
1	261 
1	142 
1	257 
1	158 
1	80 
1	81 
1	38 
1	102 
1	168 
1	72 
1	14 
1	143 
1	62 
1	269 
1	44 
1	238 
1	230 
1	246 
1	8 
1	76 
1	194 
1	165 
1	23 
1	59 
1	6 
1	195 
1	58 
1	35 
1	150 
1	27 
1	285 
1	70 
1	63 
1	85 
1	119 
1	201 
1	21 
1	93 
1	265 
1	144 
1	127 
1	160 
1	42 
1	258 
1	217 
1	86 
1	176 
1	5 
1	9 
1	174 
1	64 
1	200 
1	148 
1	171 
1	128 
1	36 
1	263 
1	122 
1	99 
1	228 
1	190 
1	126 
1	137 
1	140 
1	106 
1	0 
1	57 
1	185 
1	114 
1	262 
1	136 
1	73 
1	40 
1	111 
1	192 
1	284 
1	50 
1	226 
1	271 
1	125 
1	31 
1	249 
1	47 
1	83 
1	115 
1	220 
1	270 
1	180 
1	90 
1	43 
1	203 
1	214 
1	67 
1	177 
1	266 
1	283 
1	75 
1	13 
1	133 
1	250 
1	209 
1	166 
1	147 
1	254 
1	18 
1	268 
1	69 
1	169 
1	124 
1	237 
1	274 
1	116 
1	181 
1	30 
1	138 
1	33 
1	235 
1	95 
1	159 
1	189 
1	208 
1	37 
1	188 
1	94 
1	49 
1	155 
1	152 
1	79 
1	135 
1	164 
1	275 
1	206 
1	207 
1	251 
1	222 
1	120 
1	184 
1	240 
1	139 
1	161 
1	229 
1	282 
1	218 
1	3 
1	24 
1	32 
1	29 
1	97 
1	4 
1	219 
1	197 
1	34 
1	196 
1	53 
1	19 
1	130 
1	45 
1	129 
1	113 
1	276 
1	183 
1	231 
1	236 
1	175 
1	154 
1	264 
1	101 
1	178 
1	123 
1	280 
1	132 
1	149 
1	91 
1	82 
1	66 
1	2 
1	204 
1	10 
1	54 
1	179 
1	227 
1	20 
1	48 
1	65 
1	224 
1	16 
1	15 
1	7 
1	1 
1	232 
1	55 
1	134 
1	25 
1	244 
1	26 
1	173 
1	187 
1	172 
1	110 
1	182 
1	100 
1	61 
1	162 
1	156 
0	

8
 1 0 0.8 0.2 0 1 0 1
8
 1 0 0 1 0.5 0 0.5 1
8
 1 0 0 1 0.5 0 0.5 1
8
 1 0 0 1 0.5 0 0.5 1
8
 1 0 0 1 0.3 0 0.7 1
8
 1 0 0 1 0.39 0 0.61 1
8
 1 0 0 1 0.5 0 0.5 1
8
 1 0 0 1 0.89 0 0.11 1
8
 1 0 0 1 0.5 0 0.5 1
8
 1 0 0 1 0.01 0 0.99 1
8
 1 0 0 1 0.7 0 0.3 1
8
 1 0 0 1 0.5 0 0.5 1
8
 1 0 0 1 0.1 0 0.9 1
8
 1 0 0 1 0.5 0 0.5 1
8
 1 0 0 1 0.89 0 0.11 1
8
 1 0 0 1 0 0 1 1
8
 1 0 0 1 0.5 0 0.5 1
8
 1 0 0 1 0.5 0 0.5 1
8
 1 0 0 1 0.5 0 0.5 1
8
 1 0 0 1 0.1 0 0.9 1
8
 1 0 0 1 0.8 0 0.2 1
8
 1 0 0 1 0.7 0 0.3 1
8
 1 0 0 1 0.5 0 0.5 1
8
 1 0 0 1 0.5 0 0.5 1
8
 1 0 0 1 0.5 0 0.5 1
8
 1 0 0 1 0.7 0 0.3 1
8
 1 0 0 1 0.5 0 0.5 1
8
 1 0 0 1 0 0 1 1
8
 1 0 0 1 0.9 0 0.1 1
2
 0.03 1
8
 1 0 0.5 0.5 0.3 0.7 0.15 0.85
8
 1 0 0 1 0.05 0 0.95 1
8
 1 0 0 1 0.5 0 0.5 1
2
 0.03 1
8
 1 0 0.1 0.9 0.5 0.5 0.05 0.95
8
 1 0 0 1 0.5 0 0.5 1
8
 1 0 0 1 0.1 0 0.9 1
8
 1 0 0 1 0.1 0 0.9 1
8
 1 0 0 1 0.1 0 0.9 1
8
 1 0 0 1 0.09 0 0.91 1
8
 1 0 0 1 0.5 0 0.5 1
8
 1 0 0 1 0.01 0 0.99 1
8
 1 0 0 1 0.95 0 0.05 1
8
 1 0 0 1 0.5 0 0.5 1
8
 1 0 0 1 0.19 0 0.81 1
8
 1 0 0 1 0.01 0 0.99 1
8
 1 0 0 1 0.01 0 0.99 1
8
 1 0 0 1 0.09 0 0.91 1
8
 1 0 0 1 0.5 0 0.5 1
8
 1 0 0 1 0.01 0 0.99 1
8
 1 0 0 1 0.1 0 0.9 1
8
 1 0 0 1 0.05 0 0.95 1
8
 1 0 0 1 0.1 0 0.9 1
8
 1 0 0 1 0.19 0 0.81 1
8
 1 0 0 1 0.19 0 0.81 1
8
 1 0 0 1 0.1 0 0.9 1
8
 1 0 0 1 0.05 0 0.95 1
8
 1 0 0 1 0.5 0 0.5 1
8
 1 0 0 1 0.05 0 0.95 1
8
 1 0 0 1 0.01 0 0.99 1
8
 1 0 0 1 0.5 0 0.5 1
8
 1 0 0 1 0.2 0 0.8 1
8
 1 0 0 1 0.1 0 0.9 1
8
 1 0 0 1 0.5 0 0.5 1
8
 1 0 0 1 0.5 0 0.5 1
8
 1 0 0 1 0.95 0 0.05 1
8
 1 0 0 1 0.89 0 0.11 1
8
 1 0 0 1 0.5 0 0.5 1
8
 1 0 0 1 0.5 0 0.5 1
8
 1 0 0 1 0.5 0 0.5 1
8
 1 0 0 1 0.2 0 0.8 1
8
 1 0 0 1 0.5 0 0.5 1
8
 1 0 0 1 0.5 0 0.5 1
8
 1 0 0 1 0.5 0 0.5 1
8
 1 0 0 1 0.09 0 0.91 1
8
 1 0 0 1 0.19 0 0.81 1
8
 1 0 0 1 0.5 0 0.5 1
8
 1 0 0 1 0.09 0 0.91 1
8
 1 0 0 1 0.5 0 0.5 1
8
 1 0 0 1 0.59 0 0.41 1
8
 1 0 0 1 0.5 0 0.5 1
8
 1 0 0 1 0.1 0 0.9 1
8
 1 0 0 1 0.1 0 0.9 1
8
 1 0 0 1 0.01 0 0.99 1
8
 1 0 0 1 0.3 0 0.7 1
8
 1 0 0 1 0.1 0 0.9 1
8
 1 0 0 1 0.5 0 0.5 1
8
 1 0 0 1 0.5 0 0.5 1
8
 1 0 0 1 0.19 0 0.81 1
8
 1 0 0 1 0.5 0 0.5 1
8
 1 0 0 1 0.19 0 0.81 1
8
 1 0 0 1 0.09 0 0.91 1
8
 1 0 0 1 0.1 0 0.9 1
8
 1 0 0 1 0.5 0 0.5 1
8
 1 0 0 1 0.5 0 0.5 1
8
 1 0 0 1 0.59 0 0.41 1
8
 1 0 0 1 0.05 0 0.95 1
8
 1 0 0 1 0.19 0 0.81 1
8
 1 0 0 1 0.05 0 0.95 1
8
 1 0 0 1 0.2 0 0.8 1
8
 1 0 0 1 0.1 0 0.9 1
8
 1 0 0 1 0.5 0 0.5 1
8
 1 0 0 1 0.5 0 0.5 1
8
 1 0 0 1 0.1 0 0.9 1
2
 0.03 1
8
 1 0 0.9 0.1 0.05 0.95 0.045 0.955
8
 1 0 0 1 0.9 0 0.1 1
8
 1 0 0 1 0.05 0 0.95 1
8
 1 0 0 1 0.05 0 0.95 1
8
 1 0 0 1 0.05 0 0.95 1
8
 1 0 0 1 0.9 0 0.1 1
8
 1 0 0 1 0.3 0 0.7 1
8
 1 0 0 1 0.3 0 0.7 1
8
 1 0 0 1 0.1 0 0.9 1
8
 1 0 0 1 0.9 0 0.1 1
8
 1 0 0 1 0.3 0 0.7 1
8
 1 0 0 1 0.05 0 0.95 1
8
 1 0 0 1 0.05 0 0.95 1
8
 1 0 0 1 0.05 0 0.95 1
8
 1 0 0 1 0.05 0 0.95 1
8
 1 0 0 1 0.5 0 0.5 1
8
 1 0 0 1 0.3 0 0.7 1
8
 1 0 0 1 0.5 0 0.5 1
8
 1 0 0 1 0.9 0 0.1 1
8
 1 0 0 1 0.05 0 0.95 1
8
 1 0 0 1 0.3 0 0.7 1
8
 1 0 0 1 0.05 0 0.95 1
8
 1 0 0 1 0.05 0 0.95 1
8
 1 0 0 1 0.05 0 0.95 1
8
 1 0 0 1 0.05 0 0.95 1
8
 1 0 0 1 0.5 0 0.5 1
8
 1 0 0 1 0.4 0 0.6 1
8
 1 0 0 1 0.9 0 0.1 1
8
 1 0 0 1 0.5 0 0.5 1
8
 1 0 0 1 0.7 0 0.3 1
8
 1 0 0 1 0.01 0 0.99 1
8
 1 0 0 1 0.9 0 0.1 1
8
 1 0 0 1 0.9 0 0.1 1
8
 1 0 0 1 0.05 0 0.95 1
8
 1 0 0 1 0.4 0 0.6 1
8
 1 0 0 1 0.9 0 0.1 1
8
 1 0 0 1 0.9 0 0.1 1
8
 1 0 0 1 0.75 0 0.25 1
8
 1 0 0 1 0.05 0 0.95 1
8
 1 0 0 1 0.05 0 0.95 1
8
 1 0 0 1 0.3 0 0.7 1
8
 1 0 0 1 0.9 0 0.1 1
8
 1 0 0 1 0.5 0 0.5 1
8
 1 0 0 1 0.9 0 0.1 1
8
 1 0 0 1 0.3 0 0.7 1
8
 1 0 0 1 0.05 0 0.95 1
8
 1 0 0 1 0.9 0 0.1 1
8
 1 0 0 1 0.5 0 0.5 1
8
 1 0 0 1 0.9 0 0.1 1
8
 1 0 0 1 0.9 0 0.1 1
8
 1 0 0 1 0.9 0 0.1 1
8
 1 0 0 1 0.05 0 0.95 1
8
 1 0 0 1 0.05 0 0.95 1
8
 1 0 0 1 0.05 0 0.95 1
8
 1 0 0 1 0.05 0 0.95 1
8
 1 0 0 1 0.05 0 0.95 1
8
 1 0 0 1 0.3 0 0.7 1
8
 1 0 0 1 0.05 0 0.95 1
8
 1 0 0 1 0.05 0 0.95 1
8
 1 0 0 1 0.9 0 0.1 1
8
 1 0 0 1 0.3 0 0.7 1
8
 1 0 0 1 0.5 0 0.5 1
8
 1 0 0 1 0.05 0 0.95 1
8
 1 0 0 1 0.1 0 0.9 1
8
 1 0 0 1 0.9 0 0.1 1
8
 1 0 0 1 0.89 0 0.11 1
8
 1 0 0 1 0.05 0 0.95 1
8
 1 0 0 1 0.9 0 0.1 1
8
 1 0 0 1 0.89 0 0.11 1
8
 1 0 0 1 0.05 0 0.95 1
8
 1 0 0 1 0.09 0 0.91 1
8
 1 0 0 1 0.05 0 0.95 1
8
 1 0 0 1 0.02 0 0.98 1
8
 1 0 0 1 0.05 0 0.95 1
8
 1 0 0 1 0.2 0 0.8 1
8
 1 0 0 1 0.05 0 0.95 1
8
 1 0 0 1 0.05 0 0.95 1
8
 1 0 0 1 0.3 0 0.7 1
8
 1 0 0 1 0.05 0 0.95 1
8
 1 0 0 1 0.4 0 0.6 1
8
 1 0 0 1 0.05 0 0.95 1
8
 1 0 0 1 0.05 0 0.95 1
8
 1 0 0 1 0.9 0 0.1 1
8
 1 0 0 1 0.05 0 0.95 1
2
 0.03 1
8
 1 0 0.57 0.43 0.5 0.5 0.285 0.715
8
 1 0 0 1 0.1 0 0.9 1
8
 1 0 0 1 0 0 1 1
8
 1 0 0 1 0.09 0 0.91 1
8
 1 0 0 1 0.5 0 0.5 1
8
 1 0 0 1 0.1 0 0.9 1
8
 1 0 0 1 0 0 1 1
8
 1 0 0 1 0.5 0 0.5 1
8
 1 0 0 1 0.5 0 0.5 1
8
 1 0 0 1 0.5 0 0.5 1
8
 1 0 0 1 0 0 1 1
8
 1 0 0 1 0.01 0 0.99 1
8
 1 0 0 1 0.5 0 0.5 1
8
 1 0 0 1 0.5 0 0.5 1
8
 1 0 0 1 0 0 1 1
8
 1 0 0 1 0.4 0 0.6 1
8
 1 0 0 1 0.1 0 0.9 1
8
 1 0 0 1 0.01 0 0.99 1
2
 0.03 1
8
 1 0 0 1 0 1 0 1
8
 1 0 0 1 0 0 1 1
8
 1 0 0 1 0 0 1 1
8
 1 0 0 1 0 0 1 1
8
 1 0 0 1 0 0 1 1
8
 1 0 0 1 0 0 1 1
8
 1 0 0 1 0 0 1 1
8
 1 0 0 1 0 0 1 1
8
 1 0 0 1 0 0 1 1
8
 1 0 0 1 0 0 1 1
8
 1 0 0 1 0 0 1 1
8
 1 0 0 1 0 0 1 1
8
 1 0 0 1 0 0 1 1
8
 1 0 0 1 0 0 1 1
8
 1 0 0 1 0 0 1 1
8
 1 0 0 1 0 0 1 1
8
 1 0 0 1 0 0 1 1
8
 1 0 0 1 0 0 1 1
8
 1 0 0 1 0 0 1 1
8
 1 0 0 1 0 0 1 1
8
 1 0 0 1 0 0 1 1
8
 1 0 0 1 0 0 1 1
8
 1 0 0 1 0 0 1 1
8
 1 0 0 1 0 0 1 1
8
 1 0 0 1 0 0 1 1
8
 1 0 0 1 0 0 1 1
8
 1 0 0 1 0 0 1 1
8
 1 0 0 1 0 0 1 1
8
 1 0 0 1 0 0 1 1
8
 1 0 0 1 0 0 1 1
8
 1 0 0 1 0 0 1 1
8
 1 0 0 1 0 0 1 1
8
 1 0 0 1 0 0 1 1
8
 1 0 0 1 0 0 1 1
8
 1 0 0 1 0 0 1 1
8
 1 0 0 1 0 0 1 1
8
 1 0 0 1 0 0 1 1
8
 1 0 0 1 0 0 1 1
8
 1 0 0 1 0 0 1 1
8
 1 0 0 1 0 0 1 1
8
 1 0 0 1 0 0 1 1
8
 1 0 0 1 0 0 1 1
8
 1 0 0 1 0 0 1 1
8
 1 0 0 1 0 0 1 1
8
 1 0 0 1 0 0 1 1
8
 1 0 0 1 0 0 1 1
8
 1 0 0 1 0 0 1 1
8
 1 0 0 1 0 0 1 1
8
 1 0 0 1 0 0 1 1
8
 1 0 0 1 0 0 1 1
8
 1 0 0 1 0 0 1 1
8
 1 0 0 1 0 0 1 1
8
 1 0 0 1 0 0 1 1
8
 1 0 0 1 0 0 1 1
8
 1 0 0 1 0 0 1 1
8
 1 0 0 1 0 0 1 1
8
 1 0 0 1 0 0 1 1
8
 1 0 0 1 0 0 1 1
2
 0.03 1
8
 1 0 0.3 0.7 0.5 0.5 0.15 0.85
8
 1 0 0 1 0 0 1 1
8
 1 0 0 1 0.01 0 0.99 1
2
 0.03 1
8
 1 0 0.2 0.8 0.5 0.5 0.1 0.9
8
 1 0 0 1 0.5 0 0.5 1
8
 1 0 0 1 0.5 0 0.5 1
8
 1 0 0 1 0.5 0 0.5 1
8
 1 0 0 1 0.1 0 0.9 1
8
 1 0 0 1 0.05 0 0.95 1
8
 1 0 0 1 0.5 0 0.5 1
8
 1 0 0 1 0.1 0 0.9 1
8
 1 0 0 1 0.5 0 0.5 1
8
 1 0 0 1 0.1 0 0.9 1
8
 1 0 0 1 0.5 0 0.5 1
8
 1 0 0 1 0.09 0 0.91 1
8
 1 0 0 1 0.5 0 0.5 1
8
 1 0 0 1 0.5 0 0.5 1
8
 1 0 0 1 0.5 0 0.5 1
8
 1 0 0 1 0.5 0 0.5 1
8
 1 0 0 1 0.2 0 0.8 1
8
 1 0 0 1 0.05 0 0.95 1
8
 1 0 0 1 0.5 0 0.5 1
8
 1 0 0 1 0.5 0 0.5 1
8
 1 0 0 1 0.05 0 0.95 1
8
 1 0 0 1 0.5 0 0.5 1
8
 1 0 0 1 0.5 0 0.5 1
8
 1 0 0 1 0.5 0 0.5 1
8
 1 0 0 1 0.1 0 0.9 1
2
 0.03 1
8
 1 0 0.5 0.5 0.2 0.8 0.1 0.9
8
 1 0 0 1 0.05 0 0.95 1
2
 0.03 1
8
 1 0 0.57 0.43 0.5 0.5 0.285 0.715
8
 1 0 0 1 0.1 0 0.9 1
8
 1 0 0 1 0.01 0 0.99 1
8
 1 0 0 1 0.09 0 0.91 1
8
 1 0 0 1 0.5 0 0.5 1
8
 1 0 0 1 0.1 0 0.9 1
8
 1 0 0 1 0.5 0 0.5 1
8
 1 0 0 1 0.01 0 0.99 1
8
 1 0 0 1 0.5 0 0.5 1
8
 1 0 0 1 0.5 0 0.5 1
8
 1 0 0 1 0.05 0 0.95 1
8
 1 0 0 1 0.01 0 0.99 1
8
 1 0 0 1 0.5 0 0.5 1
8
 1 0 0 1 0.5 0 0.5 1
8
 1 0 0 1 0.01 0 0.99 1
8
 1 0 0 1 0.4 0 0.6 1
8
 1 0 0 1 0.1 0 0.9 1
8
 1 0 0 1 0.01 0 0.99 1
8
 1 0 0 1 0.2 0 0.8 1
2
 0.03 1
8
 1 0 0.2 0.8 0.5 0.5 0.1 0.9
8
 1 0 0 1 0.5 0 0.5 1
8
 1 0 0 1 0.5 0 0.5 1
8
 1 0 0 1 0.89 0 0.11 1
8
 1 0 0 1 0.5 0 0.5 1
8
 1 0 0 1 0.5 0 0.5 1
8
 1 0 0 1 0.1 0 0.9 1
8
 1 0 0 1 0.5 0 0.5 1
8
 1 0 0 1 0.89 0 0.11 1
8
 1 0 0 1 0.9 0 0.1 1
8
 1 0 0 1 0.5 0 0.5 1
8
 1 0 0 1 0 0 1 1
8
 1 0 0 1 0.5 0 0.5 1
8
 1 0 0 1 0.5 0 0.5 1
8
 1 0 0 1 0.9 0 0.1 1
8
 1 0 0 1 0.89 0 0.11 1
8
 1 0 0 1 0.89 0 0.11 1
8
 1 0 0 1 0.5 0 0.5 1
8
 1 0 0 1 0.5 0 0.5 1
8
 1 0 0 1 0.01 0 0.99 1
8
 1 0 0 1 0.5 0 0.5 1
8
 1 0 0 1 0.3 0 0.7 1
8
 1 0 0 1 0.5 0 0.5 1
8
 1 0 0 1 0.1 0 0.9 1
8
 1 0 0 1 0.5 0 0.5 1
8
 1 0 0 1 0.09 0 0.91 1
8
 1 0 0 1 0.5 0 0.5 1
8
 1 0 0 1 0.89 0 0.11 1
8
 1 0 0 1 0.5 0 0.5 1
8
 1 0 0 1 0 0 1 1
2
 0.03 1
8
 1 0 0.1 0.9 0.1 0.9 0.01 0.99
8
 1 0 0 1 0.05 0 0.95 1
8
 1 0 0 1 0.9 0 0.1 1
2
 0.03 1
8
 1 0 0 1 0 1 0 1
8
 1 0 0 1 0 0 1 1
8
 1 0 0 1 0 0 1 1
2
 0.03 1
8
 1 0 0 1 0.9 0.1 0 1
8
 1 0 0 1 0.2 0 0.8 1
8
 1 0 0 1 0.5 0 0.5 1
8
 1 0 0 1 0 0 1 1
8
 1 0 0 1 0.9 0 0.1 1
8
 1 0 0 1 0.5 0 0.5 1
8
 1 0 0 1 0.89 0 0.11 1
8
 1 0 0 1 0.5 0 0.5 1
8
 1 0 0 1 0 0 1 1
8
 1 0 0 1 0.89 0 0.11 1
8
 1 0 0 1 0.5 0 0.5 1
8
 1 0 0 1 0.2 0 0.8 1
8
 1 0 0 1 0.1 0 0.9 1
8
 1 0 0 1 0.5 0 0.5 1
8
 1 0 0 1 0.5 0 0.5 1
8
 1 0 0 1 0.1 0 0.9 1
8
 1 0 0 1 0 0 1 1
8
 1 0 0 1 0.5 0 0.5 1
8
 1 0 0 1 0.01 0 0.99 1
8
 1 0 0 1 0 0 1 1
8
 1 0 0 1 0 0 1 1
8
 1 0 0 1 0 0 1 1
8
 1 0 0 1 0.9 0 0.1 1
8
 1 0 0 1 0.5 0 0.5 1
8
 1 0 0 1 0 0 1 1
8
 1 0 0 1 0.5 0 0.5 1
8
 1 0 0 1 0.9 0 0.1 1
8
 1 0 0 1 0.5 0 0.5 1
8
 1 0 0 1 0.1 0 0.9 1
8
 1 0 0 1 0 0 1 1
8
 1 0 0 1 0.1 0 0.9 1
8
 1 0 0 1 0.5 0 0.5 1
8
 1 0 0 1 0.9 0 0.1 1
8
 1 0 0 1 0.5 0 0.5 1
8
 1 0 0 1 0.5 0 0.5 1
8
 1 0 0 1 0.9 0 0.1 1
8
 1 0 0 1 0.09 0 0.91 1
8
 1 0 0 1 0.5 0 0.5 1
8
 1 0 0 1 0.1 0 0.9 1
8
 1 0 0 1 0.5 0 0.5 1
8
 1 0 0 1 0.5 0 0.5 1
8
 1 0 0 1 0.9 0 0.1 1
8
 1 0 0 1 0.09 0 0.91 1
8
 1 0 0 1 0.5 0 0.5 1
8
 1 0 0 1 0.5 0 0.5 1
8
 1 0 0 1 0 0 1 1
8
 1 0 0 1 0.5 0 0.5 1
8
 1 0 0 1 0 0 1 1
8
 1 0 0 1 0 0 1 1
8
 1 0 0 1 0.5 0 0.5 1
8
 1 0 0 1 0.1 0 0.9 1
8
 1 0 0 1 0.5 0 0.5 1
8
 1 0 0 1 0.57 0 0.43 1
8
 1 0 0 1 0 0 1 1
8
 1 0 0 1 0 0 1 1
8
 1 0 0 1 0.5 0 0.5 1
8
 1 0 0 1 0.5 0 0.5 1
8
 1 0 0 1 0 0 1 1
8
 1 0 0 1 0.5 0 0.5 1
8
 1 0 0 1 0.1 0 0.9 1
8
 1 0 0 1 0.5 0 0.5 1
8
 1 0 0 1 0.1 0 0.9 1
8
 1 0 0 1 0.5 0 0.5 1
8
 1 0 0 1 0.4 0 0.6 1
8
 1 0 0 1 0.5 0 0.5 1
8
 1 0 0 1 0 0 1 1
8
 1 0 0 1 0.5 0 0.5 1
8
 1 0 0 1 0.9 0 0.1 1
8
 1 0 0 1 0.5 0 0.5 1
8
 1 0 0 1 0.89 0 0.11 1
8
 1 0 0 1 0.5 0 0.5 1
8
 1 0 0 1 0.5 0 0.5 1
8
 1 0 0 1 0.5 0 0.5 1
8
 1 0 0 1 0.5 0 0.5 1
8
 1 0 0 1 0 0 1 1
8
 1 0 0 1 0.1 0 0.9 1
8
 1 0 0 1 0.6 0 0.4 1
8
 1 0 0 1 0.5 0 0.5 1
8
 1 0 0 1 0.1 0 0.9 1
8
 1 0 0 1 0.5 0 0.5 1
8
 1 0 0 1 0 0 1 1
8
 1 0 0 1 0 0 1 1
8
 1 0 0 1 0.1 0 0.9 1
8
 1 0 0 1 0.59 0 0.41 1
8
 1 0 0 1 0 0 1 1
8
 1 0 0 1 0.4 0 0.6 1
8
 1 0 0 1 0 0 1 1
8
 1 0 0 1 0.5 0 0.5 1
8
 1 0 0 1 0.9 0 0.1 1
8
 1 0 0 1 0.5 0 0.5 1
8
 1 0 0 1 0 0 1 1
8
 1 0 0 1 0 0 1 1
8
 1 0 0 1 0.9 0 0.1 1
8
 1 0 0 1 0.5 0 0.5 1
8
 1 0 0 1 0.1 0 0.9 1
8
 1 0 0 1 0 0 1 1
8
 1 0 0 1 0.5 0 0.5 1
8
 1 0 0 1 0.09 0 0.91 1
8
 1 0 0 1 0 0 1 1
8
 1 0 0 1 0 0 1 1
8
 1 0 0 1 0 0 1 1
8
 1 0 0 1 0 0 1 1
8
 1 0 0 1 0 0 1 1
8
 1 0 0 1 0.5 0 0.5 1
8
 1 0 0 1 0.5 0 0.5 1
8
 1 0 0 1 0.5 0 0.5 1
8
 1 0 0 1 0.5 0 0.5 1
8
 1 0 0 1 0.5 0 0.5 1
8
 1 0 0 1 0 0 1 1
8
 1 0 0 1 0.5 0 0.5 1
8
 1 0 0 1 0.4 0 0.6 1
8
 1 0 0 1 0.7 0 0.3 1
8
 1 0 0 1 0.5 0 0.5 1
8
 1 0 0 1 0.89 0 0.11 1
8
 1 0 0 1 0.5 0 0.5 1
8
 1 0 0 1 0.9 0 0.1 1
8
 1 0 0 1 0 0 1 1
8
 1 0 0 1 0.9 0 0.1 1
8
 1 0 0 1 0.5 0 0.5 1
8
 1 0 0 1 0.5 0 0.5 1
8
 1 0 0 1 0 0 1 1
8
 1 0 0 1 0.75 0 0.25 1
8
 1 0 0 1 0 0 1 1
8
 1 0 0 1 0.09 0 0.91 1
8
 1 0 0 1 0.5 0 0.5 1
8
 1 0 0 1 0 0 1 1
8
 1 0 0 1 0.5 0 0.5 1
8
 1 0 0 1 0 0 1 1
8
 1 0 0 1 0.9 0 0.1 1
8
 1 0 0 1 0.7 0 0.3 1
8
 1 0 0 1 0.4 0 0.6 1
8
 1 0 0 1 0.1 0 0.9 1
8
 1 0 0 1 0 0 1 1
8
 1 0 0 1 0.6 0 0.4 1
8
 1 0 0 1 0.5 0 0.5 1
8
 1 0 0 1 0.4 0 0.6 1
8
 1 0 0 1 0.9 0 0.1 1
8
 1 0 0 1 0.5 0 0.5 1
8
 1 0 0 1 0.9 0 0.1 1
8
 1 0 0 1 0 0 1 1
8
 1 0 0 1 0 0 1 1
8
 1 0 0 1 0 0 1 1
8
 1 0 0 1 0.09 0 0.91 1
8
 1 0 0 1 0 0 1 1
8
 1 0 0 1 0.9 0 0.1 1
8
 1 0 0 1 0.5 0 0.5 1
8
 1 0 0 1 0 0 1 1
8
 1 0 0 1 0.9 0 0.1 1
8
 1 0 0 1 0 0 1 1
8
 1 0 0 1 0.9 0 0.1 1
8
 1 0 0 1 0 0 1 1
8
 1 0 0 1 0.05 0 0.95 1
8
 1 0 0 1 0.5 0 0.5 1
8
 1 0 0 1 0.5 0 0.5 1
8
 1 0 0 1 0 0 1 1
8
 1 0 0 1 0.5 0 0.5 1
8
 1 0 0 1 0 0 1 1
8
 1 0 0 1 0.1 0 0.9 1
8
 1 0 0 1 0 0 1 1
8
 1 0 0 1 0.5 0 0.5 1
8
 1 0 0 1 0 0 1 1
8
 1 0 0 1 0 0 1 1
8
 1 0 0 1 0.9 0 0.1 1
8
 1 0 0 1 0.01 0 0.99 1
2
 0.03 1
2
 0.9995 0.0005
2
 0.9999 0.0001
2
 0.99995 5e-05
2
 0.99968 0.00032
2
 0.9999 0.0001
2
 0.9992 0.0008
2
 0.99999 1e-05
2
 0.9999 0.0001
2
 0.9986 0.0014
2
 0.99999 1e-05
2
 0.99975 0.00025
2
 0.999 0.001
2
 0.99999 1e-05
2
 0.9999 0.0001
2
 0.99995 5e-05
2
 0.9981 0.0019
2
 0.9998 0.0002
2
 0.99991 9e-05
2
 0.99999 1e-05
2
 0.9999 0.0001
2
 0.99975 0.00025
2
 0.9999 0.0001
2
 0.9995 0.0005
2
 0.999999 1e-06
2
 0.9999 0.0001
2
 0.99995 5e-05
2
 0.99989 0.00011
2
 0.999999 1e-06
2
 0.9999 0.0001
2
 0.9996 0.0004
2
 0.9999 0.0001
2
 0.9999 0.0001
2
 0.9999 0.0001
2
 0.99998 2e-05
2
 0.99999 1e-05
2
 0.9999 0.0001
2
 0.998 0.002
2
 0.99995 5e-05
2
 0.99992 8e-05
2
 0.999998 2e-06
2
 0.999999 1e-06
2
 0.99989 0.00011
2
 0.9999 0.0001
2
 0.99995 5e-05
2
 1 1e-07
2
 0.99996 4e-05
2
 0.99946 0.00054
2
 0.99981 0.00019
2
 0.99996 4e-05
2
 0.9999 0.0001
2
 0.99998 2e-05
2
 0.9999 0.0001
2
 0.9999 0.0001
2
 0.9995 0.0005
2
 0.9999 0.0001
2
 0.9999 0.0001
2
 0.9999 0.0001
2
 0.9991 0.0009
2
 0.99992 8e-05
2
 0.9999 0.0001
2
 0.9995 0.0005
2
 0.99999 1e-05
2
 0.9999 0.0001
2
 0.99998 2e-05
2
 0.9999 0.0001
2
 1 1e-07
2
 0.9996 0.0004
2
 0.99996 4e-05
2
 0.9999 0.0001
2
 0.99995 5e-05
2
 0.9995 0.0005
2
 0.99995 5e-05
2
 0.999973 2.7e-05
2
 0.99999 1e-05
2
 0.99991 9e-05
2
 0.99999 1e-05
2
 0.9999 0.0001
2
 0.9999 0.0001
2
 0.99982 0.00018
2
 0.999999 1e-06
2
 0.99985 0.00015
2
 0.9999 0.0001
2
 0.9999 0.0001
2
 0.9995 0.0005
2
 0.9999 0.0001
2
 0.99995 5e-05
2
 0.99985 0.00015
2
 0.9999 0.0001
2
 0.999 0.001
2
 0.99991 9e-05
2
 0.9996 0.0004
2
 0.99998 2e-05
2
 0.99999 1e-05
2
 0.9999 0.0001
2
 0.9999 0.0001
2
 0.9995 0.0005
2
 0.9999 0.0001
2
 0.99999 1e-05
2
 0.9995 0.0005
2
 0.99922 0.00078
2
 0.9997 0.0003
2
 0.9994 0.0006
2
 0.9998 0.0002
2
 0.99993 7e-05
2
 0.9991 0.0009
2
 0.9998 0.0002
2
 0.99995 5e-05
2
 0.9998 0.0002
2
 0.9998 0.0002
2
 1 5e-07
2
 0.9994 0.0006
2
 0.99998 2e-05
2
 0.9999 0.0001
2
 0.99999 1e-05
2
 0.99995 5e-05
2
 0.9999 0.0001
2
 0.9999 0.0001
2
 0.9999 0.0001
2
 0.9995 0.0005
2
 0.9999 0.0001
2
 0.9995 0.0005
2
 0.99998 2e-05
2
 0.9997 0.0003
2
 0.9998 0.0002
2
 0.9995 0.0005
2
 0.99984 0.00016
2
 0.99993 7e-05
2
 0.9996 0.0004
2
 0.9999 0.0001
2
 0.9999 0.0001
2
 0.99997 3e-05
2
 0.999 0.001
2
 0.9999 0.0001
2
 1 1e-07
2
 0.9996 0.0004
2
 0.9999 0.0001
2
 0.9999 0.0001
2
 0.9995 0.0005
2
 0.99995 5e-05
2
 0.99998 2e-05
2
 0.9995 0.0005
2
 0.9999 0.0001
2
 0.9982 0.0018
2
 0.99996 4e-05
2
 0.9999 0.0001
2
 0.99996 4e-05
2
 0.99985 0.00015
2
 0.9999 0.0001
2
 0.9999 0.0001
2
 0.9999 0.0001
2
 0.9999 0.0001
2
 0.999977 2.291e-05
2
 0.9991 0.0009
2
 0.999999 1e-06
2
 0.99989 0.00011
2
 0.9985 0.0015
2
 0.99995 5e-05
2
 1 2e-07
2
 0.99975 0.00025
2
 0.9996 0.0004
2
 0.99995 5e-05
2
 0.9999 0.0001
2
 0.994 0.006
2
 0.99987 0.00013
2
 0.9999 0.0001
2
 0.9997 0.0003
2
 0.999999 6.2e-07
2
 0.9995 0.0005
2
 0.99995 5e-05
2
 0.9999 0.0001
2
 0.99998 2e-05
2
 0.99974 0.00026
2
 0.9999 0.0001
2
 1 1.2e-07
2
 0.997 0.003
2
 0.999 0.001
2
 0.99996 4e-05
2
 0.9995 0.0005
2
 0.9996 0.0004
2
 0.994 0.006
2
 0.99995 5e-05
2
 0.9999 0.0001
2
 0.99998 2e-05
2
 0.999997 2.82e-06
2
 0.9999 0.0001
2
 0.99999 1e-05
2
 0.9999 0.0001
2
 0.9995 0.0005
2
 0.9999 0.0001
2
 0.9999 0.0001
2
 0.999996 4e-06
2
 0.9999 0.0001
2
 1 1.6e-07
2
 0.99999 1e-05
2
 0.9999 0.0001
2
 0.9994 0.0006
2
 0.9999 0.0001
2
 0.9999 0.0001
2
 0.999907 9.332e-05
2
 0.9999 0.0001
2
 0.9994 0.0006
2
 0.99989 0.00011
2
 0.9999 0.0001
2
 0.9999 0.0001
2
 0.999969 3.12e-05
2
 0.999999 1e-06
2
 0.9992 0.0008
2
 0.99995 5e-05
2
 0.999992 8e-06
2
 0.9999 0.0001
2
 0.99975 0.00025
2
 0.9999 0.0001
2
 0.9823 0.0177
2
 0.9999 0.0001
2
 0.99999 1e-05
2
 0.9999 0.0001
2
 0.99999 1e-05
2
 0.9998 0.0002
2
 0.9999 0.0001
2
 0.9999 0.0001
2
 0.9999 0.0001
2
 0.9999 0.0001
2
 0.99999 1e-05
2
 0.999 0.001
2
 0.9995 0.0005
2
 0.99991 9e-05
2
 0.99991 9e-05
2
 0.9999 0.0001
2
 0.9999 0.0001
2
 0.99995 5e-05
2
 0.99996 4e-05
2
 0.99991 9e-05
2
 0.99997 3e-05
2
 0.9999 0.0001
2
 0.99995 5e-05
2
 0.9999 0.0001
2
 0.99994 6e-05
2
 0.9995 0.0005
2
 0.9998 0.0002
2
 0.998 0.002
2
 0.9979 0.0021
2
 0.9998 0.0002
2
 0.9999 0.0001
2
 0.9999 0.0001
2
 0.99999 1e-05
2
 0.99997 3e-05
2
 0.9999 0.0001
2
 1 1e-07
2
 0.9996 0.0004
2
 0.99992 8e-05
2
 0.99989 0.00011
2
 0.9995 0.0005
2
 0.99998 2e-05
2
 0.9999 0.0001
2
 0.9999 0.0001
2
 0.9999 0.0001
2
 0.99995 5e-05
2
 0.999999 1e-06
2
 0.9975 0.0025
2
 0.9999 0.0001
2
 0.9999 0.0001
2
 0.9995 0.0005
2
 0.9999 0.0001
2
 0.999 0.001
2
 0.99997 3e-05
2
 0.9999 0.0001
2
 0.9999 0.0001
2
 0.99999 1e-05
2
 0.9999 0.0001
2
 0.99996 4e-05
2
 0.99997 3e-05
2
 0.9995 0.0005
2
 0.9999 0.0001
2
 1 1e-07
2
 0.9999 0.0001
2
 0.9995 0.0005
2
 0.9998 0.0002
2
 0.9994 0.0006
2
 0.9999 0.0001
2
 0.99997 3e-05
2
 0.9999 0.0001
2
 0.99998 2e-05
2
 0.999 0.001
2
 0.9999 0.0001
2
 0.99988 0.00012
2
 0.99993 7e-05
1
 1

